NAME : kroE100-C-3-1-a__cluster__27983.tour
COMMENT : Length = 27983.000
COMMENT : Generated by compare_sota_instances.py for cluster
TYPE : TOUR
DIMENSION : 100
TOUR_SECTION
50
60
49
20
15
56
23
28
36
95
64
62
84
17
1
3
46
26
79
81
89
71
61
16
73
47
14
44
52
72
68
38
33
22
39
43
86
19
94
18
24
29
100
78
53
34
37
77
85
96
70
6
55
91
93
30
90
48
42
5
8
83
69
51
74
21
7
76
12
98
59
58
32
63
88
35
40
25
45
99
54
65
31
97
57
80
10
9
75
41
87
27
67
2
11
4
82
92
13
66
-1
EOF
